src/problems/tsp/data/train_data/train_case_6.tsp
NAME: case_6
TYPE: TSP
DIMENSION: 5
EDGE_WEIGHT_TYPE: GEO
DISPLAY_DATA_TYPE: COORD_DISPLAY
NODE_COORD_SECTION
0001 -9.30 147.10
0002 60.23 5.20
0003 30.03 31.15
0004 49.03 8.24
0005 37.55 112.30
EOF
